Version identifier: 20.1.0.0 | 2020-11-10 | 9bedb6d68
Tried aggregator 2 times.
MIP Presolve eliminated 1292 rows and 718 columns.
MIP Presolve modified 2506 coefficients.
Aggregator did 115 substitutions.
Reduced MIP has 999 rows, 824 columns, and 3123 nonzeros.
Reduced MIP has 194 binaries, 630 generals, 0 SOSs, and 0 indicators.
Presolve time = 0.01 sec. (5.17 ticks)
Found incumbent of value 19.000000 after 0.02 sec. (8.88 ticks)
Probing fixed 30 vars, tightened 279 bounds.
Probing time = 0.00 sec. (0.99 ticks)
Tried aggregator 2 times.
MIP Presolve eliminated 418 rows and 82 columns.
MIP Presolve modified 101 coefficients.
Aggregator did 30 substitutions.
Reduced MIP has 551 rows, 712 columns, and 1719 nonzeros.
Reduced MIP has 309 binaries, 403 generals, 0 SOSs, and 0 indicators.
Presolve time = 0.00 sec. (2.38 ticks)
Probing time = 0.00 sec. (0.18 ticks)
Tried aggregator 1 time.
Detecting symmetries...
MIP Presolve modified 174 coefficients.
Reduced MIP has 551 rows, 712 columns, and 1719 nonzeros.
Reduced MIP has 309 binaries, 403 generals, 0 SOSs, and 0 indicators.
Presolve time = 0.00 sec. (1.44 ticks)
Probing time = 0.00 sec. (0.17 ticks)
Clique table members: 106.
MIP emphasis: balance optimality and feasibility.
MIP search method: dynamic search.
Parallel mode: deterministic, using up to 24 threads.
Root relaxation solution time = 0.00 sec. (2.04 ticks)

        Nodes                                         Cuts/
   Node  Left     Objective  IInf  Best Integer    Best Bound    ItCnt     Gap

*     0+    0                           19.0000        0.0000           100.00%
      0     0        1.0000   181       19.0000        1.0000      189   94.74%
*     0+    0                            7.0000        1.0000            85.71%
      0     0        1.0000    61        7.0000      Cuts: 20      232   85.71%
      0     0        1.2222    89        7.0000      Cuts: 49      399   82.54%
      0     0        1.2887   263        7.0000      Cuts: 54      566   81.59%
      0     0        1.4667   167        7.0000      Cuts: 63      616   79.05%
      0     0        1.6885   200        7.0000      Cuts: 32      686   75.88%
      0     0        2.1250   188        7.0000      Cuts: 34      737   69.64%
      0     0        2.2000   188        7.0000      Cuts: 28      775   68.57%
      0     0        2.2000   193        7.0000      Cuts: 38      802   68.57%
      0     0        2.2000   151        7.0000      Cuts: 19      837   68.57%
      0     0        2.2500   149        7.0000      Cuts: 58      866   67.86%
      0     0        2.2500   158        7.0000      Cuts: 27      895   67.86%
*     0+    0                            5.0000        2.2500            55.00%
      0     0        cutoff              5.0000        5.0000      895    0.00%
Elapsed time = 0.22 sec. (96.46 ticks, tree = 0.01 MB, solutions = 3)

Clique cuts applied:  4
Implied bound cuts applied:  9
Flow cuts applied:  1
Mixed integer rounding cuts applied:  6
Zero-half cuts applied:  40
Gomory fractional cuts applied:  1

Root node processing (before b&c):
  Real time             =    0.23 sec. (96.55 ticks)
Parallel b&c, 24 threads:
  Real time             =    0.00 sec. (0.00 ticks)
  Sync time (average)   =    0.00 sec.
  Wait time (average)   =    0.00 sec.
                          ------------
Total (root+branch&cut) =    0.23 sec. (96.55 ticks)

Solution status = Optimal
Solution LB = 5
Solution UB = 5
Runtime = 0.233301 seconds
	Command being timed: "/home/min/git_repos/CS598MEBProject/CNT-ILP/build/cnt -s 2 ./output/k6_n30/simC_c1_k6_n30_u1_s3_del04.input-left.cnp"
	User time (seconds): 3.10
	System time (seconds): 0.04
	Percent of CPU this job got: 1252%
	Elapsed (wall clock) time (h:mm:ss or m:ss): 0:00.25
	Average shared text size (kbytes): 0
	Average unshared data size (kbytes): 0
	Average stack size (kbytes): 0
	Average total size (kbytes): 0
	Maximum resident set size (kbytes): 64980
	Average resident set size (kbytes): 0
	Major (requiring I/O) page faults: 0
	Minor (reclaiming a frame) page faults: 13596
	Voluntary context switches: 2687
	Involuntary context switches: 396
	Swaps: 0
	File system inputs: 0
	File system outputs: 16
	Socket messages sent: 0
	Socket messages received: 0
	Signals delivered: 0
	Page size (bytes): 4096
	Exit status: 0
